0 28 26 12 80 68 29 24 54 55 25 39 23 56 75 22 41 74 72 21 40 58 53 0
0 52 7 48 19 11 63 90 32 10 31 70 30 20 51 9 35 34 78 81 33 50 1 69 27 0
0 89 18 60 5 84 17 61 16 44 38 14 43 15 57 2 87 97 92 98 37 59 99 96 6 94 13 0
